(declare-const havoc Int)
(declare-const |k':52:62:65| Int)
(declare-const |i':67:76| Int)
(declare-const |k':52:75| Int)
(declare-const |j':53:63:66| Int)
(declare-const |K:73:74| Int)
(declare-const |K:60:61:64| Int)
(assert (and (<= (+ havoc -1000000) 0)
               (or (not (and (<= (- |K:73:74|) 0) (<= |K:73:74| 0)))
                     (= (+ |k':52:75| |K:73:74| (- havoc)) 0))
               (or (not (<= (+ (- |K:73:74|) 1) 0))
                     (= (+ |k':52:75| |K:73:74| (- havoc)) 0))
               (or (not (and (<= (- |K:73:74|) 0) (<= |K:73:74| 0)))
                     (= (+ |i':67:76| (* -2 |K:73:74|)) 0))
               (or (not (<= (+ (- |K:73:74|) 1) 0))
                     (= (+ |i':67:76| (* -2 |K:73:74|)) 0))
               (or (and (= |K:73:74| 0) (= (+ (- |k':52:75|) havoc) 0)
                          (= (- |i':67:76|) 0))
                     (and (<= (+ (- |K:73:74|) 1) 0) (<= (+ (- havoc) 1) 0)
                            (= (+ |i':67:76| (* 2 |k':52:75|) (* -2 havoc)) 0)
                            (<= (+ |i':67:76| (- havoc) -1) 0)
                            (<= (+ (- |i':67:76|) 2) 0)))
               (<= (- |K:73:74|) 0) (<= (- |i':67:76|) 0)
               (= (+ |i':67:76| (* 2 |k':52:75|) (* -2 havoc)) 0)
               (<= (+ (- |i':67:76|) havoc) 0)
               (or (not (<= (- |K:60:61:64|) 0))
                     (= (+ |k':52:62:65| |K:60:61:64| (- |k':52:75|)) 0))
               (or (not (<= (- |K:60:61:64|) 0))
                     (= (+ |j':53:63:66| (- |K:60:61:64|)) 0))
               (or (and (= |K:60:61:64| 0) (= (- |j':53:63:66|) 0)
                          (= (+ (- |k':52:62:65|) |k':52:75|) 0))
                     (and (<= (+ (- |K:60:61:64|) 1) 0)
                            (<= (+ (- (to_int (* (/ 1 2) havoc))) 1) 0)
                            (<= (+ (* -2 (to_int (* (/ 1 2) havoc))) havoc -1) 0)
                            (<= (+ (- |k':52:75|) 1) 0)
                            (<= (+ (* 2 (to_int (* (/ 1 2) havoc))) (- havoc)) 0)
                            (<= (+ (- (to_int (* (/ 1 2) havoc)))
                                     |j':53:63:66|) 0)
                            (<= (+ (* -2 (to_int (* (/ 1 2) havoc))) havoc -1) 0)
                            (<= (- |k':52:62:65|) 0)
                            (<= (+ (* 2 (to_int (* (/ 1 2) havoc))) (- havoc)) 0)
                            (<= (+ (- |j':53:63:66|) 1) 0)))
               (<= (- |K:60:61:64|) 0) (<= (- |j':53:63:66|) 0)
               (< (+ (- (ite (<= (- havoc) 0) (to_int (/ havoc 2))
                             (- (to_int (/ (- havoc) 2))))) |j':53:63:66|) 0)
               (not (< (- |k':52:62:65|) 0))))
(check-sat)
